Academic license - for non-commercial use only - expires 2022-11-10
Using license file /home/benedond/Apps/gurobi/gurobi950/gurobi.lic
Using gurobi.env file
Set parameter Threads to value 1
Changed value of parameter TimeLimit to 1200.0
   Prev: inf  Min: 0.0  Max: inf  Default: inf
Gurobi Optimizer version 9.1.2 build v9.1.2rc0 (linux64)
Thread count: 2 physical cores, 4 logical processors, using up to 1 threads
Optimize a model with 2112 rows, 1961 columns and 9467 nonzeros
Model fingerprint: 0x8ce85491
Variable types: 60 continuous, 1901 integer (1901 binary)
Coefficient statistics:
  Matrix range     [2e-01, 5e+02]
  Objective range  [1e-02, 4e-01]
  Bounds range     [1e+00, 1e+00]
  RHS range        [1e+00, 1e+03]
Found heuristic solution: objective 4.5287786
Presolve removed 197 rows and 87 columns
Presolve time: 0.04s
Presolved: 1915 rows, 1874 columns, 8912 nonzeros
Variable types: 59 continuous, 1815 integer (1815 binary)

Root relaxation: objective 2.099260e+00, 1990 iterations, 0.04 seconds

    Nodes    |    Current Node    |     Objective Bounds      |     Work
 Expl Unexpl |  Obj  Depth IntInf | Incumbent    BestBd   Gap | It/Node Time

     0     0    2.09926    0  143    4.52878    2.09926  53.6%     -    0s
H    0     0                       4.0325496    2.09926  47.9%     -    0s
H    0     0                       3.9337404    2.09926  46.6%     -    0s
H    0     0                       3.9187862    2.09926  46.4%     -    0s
     0     0    2.13170    0  127    3.91879    2.13170  45.6%     -    0s
H    0     0                       3.4014885    2.13170  37.3%     -    0s
     0     0    2.13298    0  131    3.40149    2.13298  37.3%     -    0s
     0     0    2.22753    0  138    3.40149    2.22753  34.5%     -    0s
H    0     0                       3.2940458    2.22753  32.4%     -    0s
     0     0    2.24438    0  128    3.29405    2.24438  31.9%     -    0s
     0     0    2.30832    0  146    3.29405    2.30832  29.9%     -    0s
     0     0    2.32198    0  125    3.29405    2.32198  29.5%     -    0s
     0     0    2.34983    0  162    3.29405    2.34983  28.7%     -    0s
H    0     0                       3.2614122    2.34983  28.0%     -    0s
     0     0    2.36697    0  158    3.26141    2.36697  27.4%     -    0s
     0     0    2.36864    0  143    3.26141    2.36864  27.4%     -    0s
     0     0    2.37011    0  160    3.26141    2.37011  27.3%     -    0s
     0     0    2.37183    0  172    3.26141    2.37183  27.3%     -    0s
     0     0    2.37300    0  184    3.26141    2.37300  27.2%     -    0s
     0     0    2.37322    0  179    3.26141    2.37322  27.2%     -    0s
     0     0    2.37345    0  193    3.26141    2.37345  27.2%     -    0s
     0     0    2.37489    0  160    3.26141    2.37489  27.2%     -    0s
     0     0    2.37510    0  162    3.26141    2.37510  27.2%     -    0s
     0     0    2.37948    0  180    3.26141    2.37948  27.0%     -    0s
     0     0    2.38336    0  174    3.26141    2.38336  26.9%     -    0s
     0     0    2.38383    0  219    3.26141    2.38383  26.9%     -    0s
     0     0    2.38413    0  184    3.26141    2.38413  26.9%     -    0s
     0     0    2.38425    0  186    3.26141    2.38425  26.9%     -    0s
     0     0    2.38651    0  142    3.26141    2.38651  26.8%     -    0s
     0     0    2.38953    0  161    3.26141    2.38953  26.7%     -    0s
     0     0    2.38992    0  154    3.26141    2.38992  26.7%     -    0s
     0     0    2.39053    0  167    3.26141    2.39053  26.7%     -    0s
     0     0    2.39096    0  156    3.26141    2.39096  26.7%     -    1s
     0     0    2.39136    0  160    3.26141    2.39136  26.7%     -    1s
     0     0    2.39138    0  152    3.26141    2.39138  26.7%     -    1s
     0     0    2.39472    0  153    3.26141    2.39472  26.6%     -    1s
     0     0    2.39582    0  147    3.26141    2.39582  26.5%     -    1s
     0     0    2.39636    0  166    3.26141    2.39636  26.5%     -    1s
     0     0    2.39647    0  192    3.26141    2.39647  26.5%     -    1s
     0     0    2.40412    0  142    3.26141    2.40412  26.3%     -    1s
H    0     0                       3.2168015    2.40412  25.3%     -    1s
     0     0    2.40466    0  122    3.21680    2.40466  25.2%     -    1s
     0     0    2.40493    0  129    3.21680    2.40493  25.2%     -    1s
     0     0    2.40690    0  142    3.21680    2.40690  25.2%     -    1s
     0     0    2.40724    0  154    3.21680    2.40724  25.2%     -    1s
     0     0    2.40735    0  162    3.21680    2.40735  25.2%     -    1s
     0     0    2.40990    0  181    3.21680    2.40990  25.1%     -    1s
     0     0    2.41065    0  193    3.21680    2.41065  25.1%     -    1s
     0     0    2.41109    0  175    3.21680    2.41109  25.0%     -    1s
     0     0    2.41118    0  161    3.21680    2.41118  25.0%     -    1s
     0     0    2.41564    0  155    3.21680    2.41564  24.9%     -    1s
     0     0    2.41593    0  140    3.21680    2.41593  24.9%     -    1s
     0     0    2.41622    0  155    3.21680    2.41622  24.9%     -    1s
     0     0    2.41624    0  138    3.21680    2.41624  24.9%     -    1s
     0     0    2.41913    0  155    3.21680    2.41913  24.8%     -    1s
     0     0    2.41996    0  172    3.21680    2.41996  24.8%     -    1s
     0     0    2.42019    0  137    3.21680    2.42019  24.8%     -    1s
     0     0    2.42056    0  168    3.21680    2.42056  24.8%     -    1s
     0     0    2.42073    0  182    3.21680    2.42073  24.7%     -    1s
     0     0    2.42650    0  209    3.21680    2.42650  24.6%     -    1s
     0     0    2.42687    0  204    3.21680    2.42687  24.6%     -    1s
     0     0    2.42718    0  187    3.21680    2.42718  24.5%     -    1s
     0     0    2.42726    0  154    3.21680    2.42726  24.5%     -    1s
     0     0    2.43323    0  191    3.21680    2.43323  24.4%     -    1s
     0     0    2.43407    0  204    3.21680    2.43407  24.3%     -    1s
     0     0    2.43425    0  210    3.21680    2.43425  24.3%     -    1s
     0     0    2.43539    0  155    3.21680    2.43539  24.3%     -    1s
     0     0    2.43560    0  183    3.21680    2.43560  24.3%     -    1s
     0     0    2.43621    0  196    3.21680    2.43621  24.3%     -    1s
     0     0    2.43621    0  193    3.21680    2.43621  24.3%     -    1s
H    0     0                       2.9387557    2.43621  17.1%     -    2s
     0     2    2.43648    0  193    2.93876    2.43648  17.1%     -    2s
H   52    52                       2.9352519    2.43789  16.9%   251    3s
H   54    54                       2.8686870    2.43789  15.0%   243    3s
H  104    97                       2.8664351    2.43789  15.0%   167    4s
   127   114    2.57245   13  108    2.86644    2.44903  14.6%   181    5s
H  462   347                       2.8594657    2.49427  12.8%   145    8s
   511   372    2.67916   49  193    2.85947    2.49786  12.6%   139   10s
H  512   354                       2.8516031    2.49786  12.4%   138   10s
   556   384    2.65958   11  139    2.85160    2.49786  12.4%   153   15s
H  578   375                       2.8465878    2.52083  11.4%   167   17s
   735   372    2.80440  106   60    2.84659    2.52530  11.3%   168   20s
H  922   367                       2.8456565    2.56124  10.0%   183   24s
   934   368    2.74286   40  149    2.84566    2.56124  10.0%   184   25s
H 1097   383                       2.8232061    2.57023  8.96%   176   27s
H 1217   387                       2.8089542    2.57151  8.45%   165   28s
  1304   404    2.73252   46  151    2.80895    2.58255  8.06%   170   30s
  1791   618     cutoff   23         2.80895    2.62580  6.52%   160   35s
  2109   772    2.78478   15  144    2.80895    2.63934  6.04%   162   40s
  2471   941    2.78318   47   92    2.80895    2.65395  5.52%   160   45s
  2890  1120     cutoff   49         2.80895    2.66231  5.22%   159   50s
  3213  1238    2.80879   57   61    2.80895    2.66662  5.07%   162   55s
  3772  1425    2.78774   26   87    2.80895    2.67806  4.66%   156   60s
  4084  1488    2.72466   32  146    2.80895    2.68267  4.50%   156   65s
  4513  1567    2.70240   48  118    2.80895    2.69134  4.19%   154   70s
  4933  1671    2.76246   34   87    2.80895    2.69845  3.93%   153   75s
  5433  1790    2.76893   56  133    2.80895    2.70664  3.64%   151   80s
  5919  1834    2.74865   42  103    2.80895    2.71767  3.25%   150   85s
  6488  1891    2.78247   37   71    2.80895    2.72391  3.03%   148   90s
  6890  1882    2.77597   35  138    2.80895    2.73026  2.80%   147   97s
  7085  1846    2.78289   57   93    2.80895    2.73449  2.65%   148  100s
  7545  1776    2.76891   45  122    2.80895    2.74255  2.36%   148  105s
  8085  1766    2.80121   44   82    2.80895    2.74813  2.17%   146  110s
  8799  1762    2.78904   62   76    2.80895    2.75430  1.95%   142  115s
  9470  1808    2.78146   77   99    2.80895    2.75954  1.76%   138  120s
 10226  1829    2.79072   57   38    2.80895    2.76455  1.58%   134  145s
 11121  1840     cutoff   52         2.80895    2.77072  1.36%   130  150s
 12090  1768     cutoff   56         2.80895    2.77712  1.13%   125  155s
 13007  1628    2.80662   66   84    2.80895    2.78210  0.96%   121  160s
 13926  1361    2.80083   32   90    2.80895    2.78674  0.79%   117  165s
*14844   936              39       2.8046260    2.79282  0.42%   113  168s
 15372   524     cutoff   44         2.80463    2.79737  0.26%   110  170s

Cutting planes:
  Gomory: 9
  Cover: 36
  Implied bound: 33
  Projected implied bound: 1
  Clique: 12
  MIR: 252
  StrongCG: 3
  Flow cover: 374
  GUB cover: 1
  Inf proof: 5
  Zero half: 1
  RLT: 15
  Relax-and-lift: 280

Explored 15921 nodes (1722854 simplex iterations) in 171.31 seconds
Thread count was 1 (of 4 available processors)

Solution count 10: 2.80463 2.80895 2.82321 ... 2.93876

Optimal solution found (tolerance 1.00e-04)
Best objective 2.804625965598e+00, best bound 2.804375485691e+00, gap 0.0089%
